1380174
43,71,35,87,49,82,14,66,60,57,15,81,41,63,1,34,96,26,4,2,88,90,7,84,52,9,55,17,40,5,76,29,20,19,95,59,30,12,36,79,98,67,69,56,46,32,8,0,47,44,3,65,94,50,25,53,22,27,10,97,33,45,13,91,38,6,72,21,42,23,93,77,11,78,16,24,39,28,18,58,70,89,64,51,83,80,85,86,75,37,73,31,62,92,74,68,48,61,54